(declare-const a Real)
(declare-const b Real)
(declare-const c Real)
(declare-const d Real)
(assert (= (* a b c d) 1))
(assert (>= a 0))
(assert (>= b 0))
(assert (>= c 0))
(assert (>= d 0))
(assert (not (<= (+ a b c d (* (pow (* (pow b (* 4 c)) (pow (* b (pow a 2)) (pow a 2))) (pow (+ c (pow a 2)) -1)) (+ (* -1 c) (* -1 (pow a 2)))) (* -1 a (pow d 4)) (* -1 d (pow c 4))) 0)))
(check-sat)
(get-model)
(exit)